SAT
-18 -78 -20 97 -64 38 -81 -41 -47 86 -71 25 -73 -9 -3 92 31 50 70 27 33 61 -58 84 7 77 -98 -93 -87 -59 44 -75 -23 14 37 -2 -83 24 56 -96 76 -19 10 -29 -100 -95 53 99 82 12 -79 -90 39 -4 -63 30 28 17 1 74 -35 36 -51 67 -54 94 21 -45 -42 48 -60 22 -43 -80 -57 -8 -52 -65 -89 49 -88 -11 -5 -6 -32 -68 -40 -13 91 55 46 85 62 -16 -66 -72 -15 -69 26 -34 0
